(set-info :smt-lib-version 2.8)
(set-logic QF_EIA)
(set-info :source |
Generated by: Florian Frohn
Generator: LoAT
Application: proving lower bounds on the worst-case runtime of transition systems
Target solver: SwInE
Time limit: 1.0
Benchmarks generated by the verification tool LoAT to evaluate the SMT solver
SwInE. We extracted all benchmarks with exponentiation that were generated by
LoAT when analyzing the examples from the category LIA-Lin (linear CHCs with
linear integer arithmetic) of the CHC competitions 2022 and 2023, and when
analyzing the examples from the categories "Termination of Integer Transition
Systems" and "Complexity of Integer Transition Systems" of the Termination and
Complexity Competition 2024. From the entire set, we selected those where
* SwInE v0.1.0 or SwInE-Z3 v0.1.2 failed or needed more than 1 second, or
* SwInE-Z3 v0.1.2 failed without phasing, a technique to prevent SwInE from
  computing with huge constants (described here
  https://arxiv.org/abs/2502.04761)
If several selected benchmarks only differed in lines not containing
exponentiation, we kept only one of them. This benchmark is known to be
satisfiable with the slightly different semantics of exponentiation used by the
versions of SwInE mentioned above.
|)
(set-info :license "https://creativecommons.org/licenses/by/4.0/")
(set-info :category "industrial")
(set-info :status unknown)

(declare-fun i1 () Int)
(declare-fun it5 () Int)
(declare-fun it6 () Int)
(declare-fun i2 () Int)
(declare-fun i3 () Int)
(declare-fun it7 () Int)
(declare-fun it8 () Int)
(declare-fun i4 () Int)
(declare-fun it9 () Int)
(declare-fun i5 () Int)
(declare-fun i6 () Int)
(declare-fun it10 () Int)
(declare-fun it11 () Int)
(declare-fun it12 () Int)
(declare-fun i8 () Int)
(declare-fun i9 () Int)
(declare-fun it13 () Int)
(declare-fun i10 () Int)
(declare-fun it14 () Int)
(declare-fun it147 () Int)
(declare-fun it2 () Int)
(declare-fun it4 () Int)
(declare-fun it151 () Int)
(declare-fun it152 () Int)
(declare-fun it153 () Int)
(declare-fun it154 () Int)
(declare-fun it155 () Int)
(declare-fun it156 () Int)
(declare-fun it157 () Int)
(declare-fun it158 () Int)
(declare-fun it159 () Int)
(declare-fun it160 () Int)
(declare-fun it167 () Int)
(declare-fun it168 () Int)
(declare-fun it169 () Int)
(declare-fun it170 () Int)
(declare-fun it171 () Int)
(declare-fun it172 () Int)
(declare-fun it173 () Int)
(declare-fun it174 () Int)
(declare-fun it175 () Int)
(declare-fun it176 () Int)
(declare-fun it215 () Int)
(declare-fun it216 () Int)
(declare-fun it217 () Int)
(declare-fun it218 () Int)
(declare-fun it219 () Int)
(declare-fun it220 () Int)
(declare-fun it221 () Int)
(declare-fun it222 () Int)
(declare-fun it223 () Int)
(declare-fun it224 () Int)
(declare-fun it227 () Int)
(declare-fun it228 () Int)
(declare-fun it229 () Int)
(declare-fun it230 () Int)
(declare-fun it231 () Int)
(declare-fun it163 () Int)
(declare-fun it232 () Int)
(declare-fun it233 () Int)
(declare-fun it234 () Int)
(declare-fun it235 () Int)
(declare-fun it236 () Int)
(declare-fun it375 () Int)
(declare-fun it376 () Int)
(declare-fun it377 () Int)
(declare-fun it378 () Int)
(declare-fun it379 () Int)
(declare-fun it380 () Int)
(declare-fun it381 () Int)
(declare-fun it382 () Int)
(declare-fun it383 () Int)
(declare-fun it384 () Int)
(declare-fun it387 () Int)
(declare-fun it388 () Int)
(declare-fun it389 () Int)
(declare-fun it390 () Int)
(declare-fun it391 () Int)
(declare-fun it392 () Int)
(declare-fun it393 () Int)
(declare-fun it394 () Int)
(declare-fun it395 () Int)
(declare-fun it396 () Int)
(declare-fun it399 () Int)
(declare-fun it400 () Int)
(declare-fun it401 () Int)
(declare-fun it402 () Int)
(declare-fun it403 () Int)
(declare-fun it404 () Int)
(declare-fun it405 () Int)
(declare-fun it406 () Int)
(declare-fun it407 () Int)
(declare-fun it408 () Int)
(declare-fun it411 () Int)
(declare-fun it412 () Int)
(declare-fun it413 () Int)
(declare-fun it414 () Int)
(declare-fun it415 () Int)
(declare-fun it416 () Int)
(declare-fun it417 () Int)
(declare-fun it418 () Int)
(declare-fun it419 () Int)
(declare-fun it420 () Int)
(declare-fun it423 () Int)
(declare-fun it424 () Int)
(declare-fun it425 () Int)
(declare-fun it426 () Int)
(declare-fun it427 () Int)
(declare-fun it428 () Int)
(declare-fun it429 () Int)
(declare-fun it430 () Int)
(declare-fun it431 () Int)
(declare-fun it432 () Int)
(declare-fun it442 () Int)
(declare-fun it443 () Int)
(declare-fun it444 () Int)
(declare-fun it445 () Int)
(declare-fun it446 () Int)
(declare-fun it447 () Int)
(declare-fun it448 () Int)
(declare-fun it449 () Int)
(declare-fun it450 () Int)
(declare-fun it451 () Int)
(assert (= (+ i1 (- 1)) 0))
(assert (= (+ it5 (- 13)) 0))
(assert (= (+ (* i2 (- 1)) it6 (- 12)) 0))
(assert (= (+ it7 (* i3 (- 1))) 0))
(assert (= (+ (* i4 (- 1)) it8) 0))
(assert (= (+ (* i5 (- 1)) it9) 0))
(assert (= (+ it10 (* i6 (- 1))) 0))
(assert (= (+ it11 (- 1)) 0))
(assert (= (+ (* i8 (- 1)) it12) 0))
(assert (= (+ it13 (* i9 (- 1))) 0))
(assert (= (+ it14 (* i10 (- 1))) 0))
(assert (let ((a!1 (* (* (+ 0 it11) (** 2 (+ it147 (- 1)))) (+ 0 (- 1))))
      (a!3 (* (* (+ 0 it11) (** 2 (+ it147 (- 1)))) (+ 0 (- 2))))
      (a!5 (>= (+ (+ it14 (* it11 (- 2))) (- 1)) 0)))
(let ((a!2 (+ a!1
              (+ 0 it14)
              (* (** 2 (+ it147 (- 1))) (+ 0 (- 1)))
              (+ 0 1)))
      (a!4 (+ a!3 (+ 0 it14) (* (** 2 (+ it147 (- 1))) (+ 0 (- 2))))))
  (and (> it14 0)
       (>= (+ (* it5 (- 1)) 13) 0)
       (>= a!2 (+ 0 0))
       (>= (+ it11 (- 1)) 0)
       (>= (+ (* it11 2) (- 1)) 0)
       (>= (+ a!4 (+ 0 1)) (+ 0 0))
       a!5
       (>= (+ it14 (* it11 (- 1))) 0)
       (>= (+ it5 (- 13)) 0)
       (> it4 0)
       (>= (+ it14 (* it11 (- 2))) 0)
       (>= (* it11 2) 0)
       (>= (+ a!4 (+ 0 2)) (+ 0 0))
       (>= (* it2 (- 1)) 0)
       (> (+ it11 1) 0)
       (>= (+ it147 (- 1)) 0)))))
(assert (= (+ it151 (* it5 (- 1))) 0))
(assert (= (+ (* it147 (- 14)) it152 (* it6 (- 1))) 0))
(assert (= (+ (* it4 (- 1)) it153) 0))
(assert (let ((a!1 (+ (+ 0 it154)
              (* (+ 0 it11) (** 2 (+ it147 (- 1))) (+ 0 (- 2)))
              (* (** 2 (+ it147 (- 1))) (+ 0 (- 2)))
              (+ 0 2))))
  (= a!1 (+ 0 0))))
(assert (let ((a!1 (+ (* (+ 0 it11) (** 2 (+ it147 (- 1))) (+ 0 (- 2)))
              (+ 0 it155)
              (* (** 2 (+ it147 (- 1))) (+ 0 (- 2)))
              (+ 0 1))))
  (= a!1 (+ 0 0))))
(assert (= (+ (* it2 (- 1)) it156) 0))
(assert (= (+ (* (** 2 it147) (+ 0 (- 1)))
      (* (** 2 it147) (+ 0 it11) (+ 0 (- 1)))
      (+ 0 it157)
      (+ 0 1))
   (+ 0 0)))
(assert (let ((a!1 (+ (* (+ 0 it11) (** 2 (+ it147 (- 1))) (+ 0 (- 1)))
              (+ 0 it158)
              (* (** 2 (+ it147 (- 1))) (+ 0 (- 1)))
              (+ 0 1))))
  (= a!1 (+ 0 0))))
(assert (let ((a!1 (+ (* (+ 0 it11) (** 2 (+ it147 (- 1))) (+ 0 (- 2)))
              (+ 0 it159)
              (* (** 2 (+ it147 (- 1))) (+ 0 (- 2)))
              (+ 0 1))))
  (= a!1 (+ 0 0))))
(assert (= (+ (* it14 (- 1)) it160) 0))
(assert (and (>= (+ it157 (- 1)) 0) (= (+ it151 (- 13)) 0) (> it160 0)))
(assert (= (+ it167 (- 14)) 0))
(assert (= (+ (* it152 (- 1)) it168 (- 1)) 0))
(assert (= (+ it169 (* it153 (- 1))) 0))
(assert (= (+ (* it154 (- 1)) it170) 0))
(assert (= (+ (* it155 (- 1)) it171) 0))
(assert (= (+ (* it156 (- 1)) it172) 0))
(assert (= (+ it173 (* it157 (- 1))) 0))
(assert (= (+ (* it158 (- 1)) it174) 0))
(assert (= (+ (* it159 (- 1)) it175) 0))
(assert (= (+ it176 (* it160 (- 1))) 0))
(assert (and (<= (+ (* it176 (- 1)) (* it173 2)) 0) (= (+ it167 (- 14)) 0)))
(assert (= (+ it215 (- 16)) 0))
(assert (= (+ it216 (* it168 (- 1)) (- 1)) 0))
(assert (= (+ (* it169 (- 1)) it217) 0))
(assert (= (+ it218 (* it173 (- 2))) 0))
(assert (= (+ (* it173 (- 2)) it219 (- 1)) 0))
(assert (= (+ it220 (* it172 (- 1))) 0))
(assert (= (+ it221 (* it173 (- 1))) 0))
(assert (= (+ it222 (* it174 (- 1))) 0))
(assert (= (+ it223 (* it175 (- 1))) 0))
(assert (= (+ it224 (* it176 (- 1))) 0))
(assert (and (= (+ it215 (- 16)) 0)
     (>= (+ it218 (- 1)) 0)
     (<= (+ (* it224 (- 1)) it218) 0)))
(assert (= (+ it227 (- 20)) 0))
(assert (= (+ (* it216 (- 1)) it228 (- 3)) 0))
(assert (= (+ (* it217 (- 1)) it229) 0))
(assert (= (+ (* it218 (- 1)) it230) 0))
(assert (= (+ it231 (* it219 (- 1))) 0))
(assert (= (+ it232 (* it163 (- 1))) 0))
(assert (= (+ it233 (* it221 (- 1))) 0))
(assert (= (+ it234 (* it222 (- 1))) 0))
(assert (= (+ it235 (* it223 (- 1))) 0))
(assert (= (+ (* it224 (- 1)) it236) 0))
(assert (and (= (+ it227 (- 20)) 0) (> it232 0)))
(assert (= (+ it375 (- 17)) 0))
(assert (= (+ (* it228 (- 1)) it376 (- 1)) 0))
(assert (= (+ it377 (* it229 (- 1))) 0))
(assert (= (+ (* it230 (- 1)) it378) 0))
(assert (= (+ (* it231 (- 1)) it379) 0))
(assert (= (+ (* it232 (- 1)) it380) 0))
(assert (= (+ (* it233 (- 1)) it381) 0))
(assert (= (+ (* it230 (- 1)) it382) 0))
(assert (= (+ (* it235 (- 1)) it383) 0))
(assert (= (+ it384 (* it236 (- 1))) 0))
(assert (and (> (+ (* it384 (- 1)) it379) 0) (= (+ it375 (- 17)) 0)))
(assert (= (+ it387 (- 22)) 0))
(assert (= (+ it388 (* it376 (- 1)) (- 1)) 0))
(assert (= (+ (* it377 (- 1)) it389) 0))
(assert (= (+ (* it378 (- 1)) it390) 0))
(assert (= (+ it391 (* it379 (- 1))) 0))
(assert (= (+ it392 (* it380 (- 1))) 0))
(assert (= (+ (* it381 (- 1)) it393) 0))
(assert (= (+ it394 (* it382 (- 1))) 0))
(assert (= (+ it395 (* it382 (- 1))) 0))
(assert (= (+ (* it384 (- 1)) it396) 0))
(assert (and (< (+ (* it395 (- 1)) it393) 0) (= (+ it387 (- 22)) 0)))
(assert (= (+ it399 (- 26)) 0))
(assert (= (+ it400 (* it388 (- 1)) (- 1)) 0))
(assert (= (+ it401 (* it389 (- 1))) 0))
(assert (= (+ it402 (* it390 (- 1))) 0))
(assert (= (+ it403 (* it391 (- 1))) 0))
(assert (= (+ it404 (* it392 (- 1))) 0))
(assert (= (+ it405 (* it393 (- 1))) 0))
(assert (= (+ (* it394 (- 1)) it406) 0))
(assert (= (+ it407 (* it395 (- 1))) 0))
(assert (= (+ it408 (* it396 (- 1))) 0))
(assert (and (= (+ it399 (- 26)) 0)
     (>= (+ it405 (- 1)) 0)
     (<= (+ (* it408 (- 1)) it405) 0)))
(assert (= (+ it411 (- 27)) 0))
(assert (= (+ (* it400 (- 1)) it412 (- 1)) 0))
(assert (= (+ it413 (* it401 (- 1))) 0))
(assert (= (+ it414 (* it402 (- 1))) 0))
(assert (= (+ (* it403 (- 1)) it415) 0))
(assert (= (+ it416 (* it404 (- 1))) 0))
(assert (= (+ it417 (* it405 (- 1))) 0))
(assert (= (+ it418 (* it406 (- 1))) 0))
(assert (= (+ it419 (* it407 (- 1))) 0))
(assert (= (+ it420 (* it408 (- 1))) 0))
(assert (and (= (+ it411 (- 27)) 0)
     (>= (+ it419 (- 1)) 0)
     (<= (+ it419 (* it420 (- 1))) 0)))
(assert (= (+ it423 (- 13)) 0))
(assert (= (+ it424 (* it412 (- 1)) (- 1)) 0))
(assert (= (+ (* it413 (- 1)) it425) 0))
(assert (= (+ (* it414 (- 1)) it426) 0))
(assert (= (+ it427 (* it415 (- 1))) 0))
(assert (= (+ (* it416 (- 1)) it428) 0))
(assert (= (+ (* it419 (- 1)) it429) 0))
(assert (= (+ it430 (* it418 (- 1))) 0))
(assert (= (+ (* it419 (- 1)) it431) 0))
(assert (= (+ (* it420 (- 1)) it432) 0))
(assert (and (>= (+ it429 (- 1)) 0) (> it432 0) (= (+ it423 (- 13)) 0)))
(assert (= (+ it442 (- 14)) 0))
(assert (= (+ (* it424 (- 1)) it443 (- 1)) 0))
(assert (= (+ (* it425 (- 1)) it444) 0))
(assert (= (+ it445 (* it426 (- 1))) 0))
(assert (= (+ (* it427 (- 1)) it446) 0))
(assert (= (+ (* it428 (- 1)) it447) 0))
(assert (= (+ it448 (* it429 (- 1))) 0))
(assert (= (+ (* it430 (- 1)) it449) 0))
(assert (= (+ it450 (* it431 (- 1))) 0))
(assert (= (+ it451 (* it432 (- 1))) 0))
(check-sat)
(exit)
